c ---- [ banner ] ------------------------------------------------------------
c
c Kissat SAT Solver
c 
c Copyright (c) 2021-2024 Armin Biere University of Freiburg
c Copyright (c) 2019-2021 Armin Biere Johannes Kepler University Linz
c 
c Version 4.0.1 43f02cf3e992cb44653b35e5cb26f93281552ae0
c gcc (Ubuntu 13.2.0-23ubuntu4) 13.2.0 -W -Wall -O3 -DNDEBUG
c Thu Sep 12 12:27:46 CEST 2024 Linux abryzen9 6.8.0-41-generic x86_64
c
c ---- [ parsing ] -----------------------------------------------------------
c
c opened and reading DIMACS file:
c
c   /data/artifact/AMulet2.0_artifact/exp4/cnf_sopb_64/64_64_U_SP_CWT_BK_GenMul_sopb.cnf
c
c parsed 'p cnf 33320 140197' header
c closing input after reading 2783641 bytes (3 MB)
c finished parsing after 0.02 seconds
c
c ---- [ options ] -----------------------------------------------------------
c
c --stable=0                       (different from default '1')
c
c ---- [ solving ] -----------------------------------------------------------
c
c  seconds switched rate     size/glue tier1  binary           remaining
c         MB reductions conflicts size  tier2     irredundant
c          level restarts redundant glue  trail           variables
c
c *  0.02 10 0 0 0  0 0   0   0 0.0 0 0 0 0 0% 29557 110638 33317 100%
c (  0.04 12 0 0 0  0 0   0   0 0.0 0 0 0 0 0% 29557 110638 33317 100%
c .  0.04 13 0 0 0  0 0   0   0 0.0 0 0 0 0 0% 29553 110638 33317 100%
c c  0.11 18 0 0 0  0 0   0   0 0.0 0 0 0 0 0% 33969 103789 31123 93%
c d  0.12 19 0 0 0  0 0   0   0 0.0 0 0 0 0 0% 29581 103789 31123 93%
c =  0.16 19 0 0 0  0 0   0   0 0.0 0 0 0 0 0% 29523 103788 30515 92%
c d  0.17 19 0 0 0  0 0   0   0 0.0 0 0 0 0 0% 28306 103788 30515 92%
c f  0.27 19 0 0 0  0 0   0   0 0.0 0 0 0 0 0% 29848 99522 32467 97%
c e  0.43 25 0 0 0  0 0   0   0 0.0 0 0 0 0 0% 21997 104817 23624 71%
c )  0.43 25 0 0 0  0 0   0   0 0.0 0 0 0 0 0% 21997 104817 23624 71%
c {  0.44 25 0 0 0  0 0   0   0 0.0 0 0 2 6 0% 21997 104817 23624 71%
c -  0.55 25 200 0 1 249 34 1002 712 2.7 11 4 3 8 18% 22114 104811 23624 71%
c -  0.69 25 247 0 2 392 37 2002 1422 2.7 11 4 3 8 20% 22181 104810 23624 71%
c c  0.87 22 223 0 2 481 36 2505 1828 2.6 11 4 3 8 20% 22787 103486 23184 70%
c d  0.88 22 223 0 2 481 36 2505 1807 2.6 11 4 3 8 20% 21907 103486 23184 70%
c u  0.89 22 223 0 2 481 36 2505 1288 2.6 11 4 3 8 20% 20216 103486 23184 70%
c v  0.91 22 223 0 2 481 36 2505 1110 2.6 11 4 3 8 20% 20217 103486 23184 70%
c w  0.93 22 223 0 2 481 36 2505 1110 2.6 11 4 3 8 20% 20217 103486 23184 70%
c x  0.94 23 223 0 2 481 36 2505 1109 2.6 11 4 3 8 20% 20315 103249 23184 70%
c =  0.99 23 223 0 2 481 36 2505 1109 2.6 11 4 3 8 20% 20377 103249 23153 69%
c
c  seconds   switched   rate       size/glue tier1    binary           remaining
c         MB  reductions conflicts       size  tier2      irredundant
c           level restarts    redundant    glue   trail           variables
c
c d  1.00 23 223 0 2 481 36 2505 1102 2.6 11 4 3 8 20% 20313 103249 23153 69%
c t  1.01 23 223 0 2 481 36 2505 1102 2.6 11 4 3 8 20% 20284 103249 23153 69%
c f  1.03 23 223 0 2 481 36 2505 1102 2.6 11 4 3 8 20% 21605 100545 24026 72%
c u  1.08 23 223 0 2 481 36 2505 1007 2.6 11 4 3 8 20% 21612 100545 24026 72%
c v  1.09 23 223 0 2 481 36 2505 967 2.6 11 4 3 8 20% 21612 100545 24026 72%
c w  1.11 23 223 0 2 481 36 2505 957 2.6 11 4 3 8 20% 21612 100545 24026 72%
c x  1.12 23 223 0 2 481 36 2505 957 2.6 11 4 3 8 20% 21615 100517 24026 72%
c =  1.17 23 223 0 2 481 36 2505 957 2.6 11 4 3 8 20% 21631 100517 24018 72%
c d  1.17 23 223 0 2 481 36 2505 957 2.6 11 4 3 8 20% 21611 100517 24018 72%
c f  1.20 23 223 0 2 481 36 2505 957 2.6 11 4 3 8 20% 21933 99929 24236 73%
c -  1.34 23 231 0 3 612 36 3416 1530 2.7 12 4 3 8 22% 21983 99928 24236 73%
c -  1.66 24 253 0 4 937 40 5148 2714 2.8 18 6 3 8 23% 22069 99925 24236 73%
c -  1.93 24 255 0 5 1090 36 7148 3877 3.3 21 6 3 8 25% 22152 99921 24236 73%
c d  2.03 24 264 0 5 1144 36 7712 4375 3.5 23 6 3 8 25% 22131 99921 24214 73%
c u  2.06 24 264 0 5 1144 36 7712 3411 3.5 23 6 3 8 25% 22145 99921 24214 73%
c v  2.10 24 264 0 5 1144 36 7712 3054 3.5 23 6 3 8 25% 22145 99921 24214 73%
c w  2.15 24 264 0 5 1144 36 7712 3037 3.5 23 6 3 8 25% 22145 99921 24214 73%
c =  2.26 24 264 0 5 1144 36 7712 3037 3.5 23 6 3 8 25% 24246 99900 23164 70%
c d  2.27 24 264 0 5 1144 36 7712 2989 3.5 23 6 3 8 25% 22055 99900 23164 70%
c t  2.28 24 264 0 5 1144 36 7712 2989 3.5 23 6 3 8 25% 21937 99900 23164 70%
c
c  seconds   switched    rate       size/glue tier1    binary          remaining
c         MB  reductions  conflicts       size  tier2      irredundant
c           level  restarts    redundant    glue   trail          variables
c
c f  2.32 24 264 0 5 1144 36 7712 2989 3.5 23 6 3 8 25% 22188 99011 23465 70%
c u  2.39 24 264 0 5 1144 36 7712 2715 3.5 23 6 3 8 25% 22190 99011 23464 70%
c v  2.41 24 264 0 5 1144 36 7712 2643 3.5 23 6 3 8 25% 22190 99011 23464 70%
c w  2.46 24 264 0 5 1144 36 7712 2641 3.5 23 6 3 8 25% 22190 99011 23464 70%
c x  2.49 24 264 0 5 1144 36 7712 2641 3.5 23 6 3 8 25% 22192 98675 23464 70%
c =  2.60 24 264 0 5 1144 36 7712 2641 3.5 23 6 3 8 25% 22698 98673 23211 70%
c d  2.61 24 264 0 5 1144 36 7712 2632 3.5 23 6 3 8 25% 22140 98673 23210 70%
c t  2.62 24 264 0 5 1144 36 7712 2632 3.5 23 6 3 8 25% 22109 98673 23210 70%
c f  2.65 24 264 0 5 1144 36 7712 2632 3.5 23 6 3 8 25% 22236 98389 23311 70%
c -  2.77 24 277 0 6 1182 33 9384 3554 3.4 21 6 3 8 24% 22347 98372 23311 70%
c o  2.82 24 280 0 6 1196 32 10018 4108 3.4 21 6 3 8 24% 22376 98372 23311 70%
c -  3.13 24 273 0 7 1369 31 11834 4840 3.5 21 6 2 7 26% 22438 98365 23311 70%
c s  3.32 24 271 0 7 1469 32 12523 5483 3.6 23 6 2 7 26% 22458 90545 23311 70%
c e  3.40 24 271 0 7 1469 32 12523 5483 3.6 23 6 2 7 26% 20621 92085 21883 66%
c 2  3.40 24 271 0 7 1469 32 12523 5483 3.6 23 6 2 7 26% 20619 92085 21883 66%
c s  3.41 24 271 0 7 1469 32 12523 5483 3.6 23 6 2 7 26% 20642 91751 21883 66%
c e  3.42 24 271 0 7 1469 32 12523 5483 3.6 23 6 2 7 26% 20519 91825 21825 66%
c ^  3.42 24 271 0 7 1469 32 12523 5483 3.6 23 6 2 7 26% 20519 91825 21825 66%
c -  3.68 24 273 0 8 1598 30 14479 5679 3.4 22 6 2 7 26% 20601 91824 21825 66%
c d  3.81 24 277 0 8 1630 30 15797 6810 3.3 21 6 2 7 26% 20605 91824 21790 65%
c
c  seconds   switched    rate        size/glue tier1    binary          remaining
c         MB  reductions   conflicts       size  tier2      irredundant
c           level  restarts     redundant    glue   trail          variables
c
c u  3.86 24 277 0 8 1630 30 15797 5741 3.3 21 6 2 7 26% 20621 91824 21790 65%
c v  3.90 24 277 0 8 1630 30 15797 4958 3.3 21 6 2 7 26% 20621 91824 21790 65%
c w  3.93 24 277 0 8 1630 30 15797 4951 3.3 21 6 2 7 26% 20621 91824 21790 65%
c x  3.96 24 277 0 8 1630 30 15797 4950 3.3 21 6 2 7 26% 20623 91715 21790 65%
c =  4.11 24 277 0 8 1630 30 15797 4950 3.3 21 6 2 7 26% 20963 91715 21620 65%
c d  4.12 24 277 0 8 1630 30 15797 4931 3.3 21 6 2 7 26% 20537 91715 21619 65%
c t  4.14 24 277 0 8 1630 30 15797 4931 3.3 21 6 2 7 26% 20478 91715 21619 65%
c f  4.20 24 277 0 8 1630 30 15797 4931 3.3 21 6 2 7 26% 20581 91418 21696 65%
c b  4.22 24 277 0 8 1630 30 15797 4931 3.3 21 6 2 7 26% 20581 91418 21694 65%
c u  4.25 24 277 0 8 1630 30 15797 4699 3.3 21 6 2 7 26% 20587 91418 21694 65%
c v  4.29 24 277 0 8 1630 30 15797 4528 3.3 21 6 2 7 26% 20587 91418 21694 65%
c w  4.32 24 277 0 8 1630 30 15797 4511 3.3 21 6 2 7 26% 20587 91418 21694 65%
c x  4.36 24 277 0 8 1630 30 15797 4509 3.3 21 6 2 7 26% 20645 90880 21694 65%
c =  4.51 24 277 0 8 1630 30 15797 4509 3.3 21 6 2 7 26% 21073 90880 21479 64%
c d  4.52 24 277 0 8 1630 30 15797 4503 3.3 21 6 2 7 26% 20510 90880 21479 64%
c t  4.54 24 277 0 8 1630 30 15797 4503 3.3 21 6 2 7 26% 20497 90880 21479 64%
c f  4.57 24 277 0 8 1630 30 15797 4503 3.3 21 6 2 7 26% 20492 90852 21488 64%
c -  4.77 24 275 0 9 1701 29 17307 4999 3.3 21 6 2 7 26% 20548 90852 21488 64%
c o  5.13 24 290 0 9 1833 28 20039 7336 3.2 20 6 2 7 26% 20659 90851 21488 64%
c -  5.18 24 287 0 10 1865 28 20307 6624 3.2 20 6 2 7 26% 20668 90851 21488 64%
c
c  seconds   switched     rate        size/glue tier1    binary          remaining
c         MB   reductions   conflicts       size  tier2      irredundant
c           level   restarts     redundant    glue   trail          variables
c
c -  5.59 24 282 0 11 2054 27 23469 8068 3.2 20 6 2 7 26% 20792 90851 21488 64%
c s  5.71 24 277 0 11 2094 26 25028 9376 3.2 19 6 2 7 26% 20853 90131 21488 64%
c e  5.81 24 277 0 11 2094 26 25028 9376 3.2 19 6 2 7 26% 17961 94245 19977 60%
c 2  5.81 24 277 0 11 2094 26 25028 9376 3.2 19 6 2 7 26% 17956 94245 19977 60%
c s  5.82 24 277 0 11 2094 26 25028 9376 3.2 19 6 2 7 26% 18029 93505 19977 60%
c e  5.83 24 277 0 11 2094 26 25028 9376 3.2 19 6 2 7 26% 17936 93628 19927 60%
c ^  5.83 24 277 0 11 2094 26 25028 9376 3.2 19 6 2 7 26% 17936 93628 19927 60%
c -  5.97 24 274 0 12 2170 25 26785 8199 3.1 19 6 2 7 26% 17977 93626 19927 60%
c c  6.04 24 273 0 12 2185 26 26927 8321 3.1 19 6 2 7 26% 18014 93478 19904 60%
c d  6.04 24 273 0 12 2185 26 26927 8290 3.1 19 6 2 7 26% 17953 93478 19895 60%
c u  6.07 24 273 0 12 2185 26 26927 7197 3.1 19 6 2 7 26% 17972 93478 19895 60%
c v  6.11 24 273 0 12 2185 26 26927 6328 3.1 19 6 2 7 26% 17974 93478 19895 60%
c w  6.12 24 273 0 12 2185 26 26927 6327 3.1 19 6 2 7 26% 17974 93478 19895 60%
c x  6.15 24 273 0 12 2185 26 26927 6324 3.1 19 6 2 7 26% 17999 93229 19895 60%
c =  6.28 24 273 0 12 2185 26 26927 6324 3.1 19 6 2 7 26% 19243 93224 19273 58%
c d  6.29 24 273 0 12 2185 26 26927 6230 3.1 19 6 2 7 26% 17950 93224 19271 58%
c t  6.30 24 273 0 12 2185 26 26927 6230 3.1 19 6 2 7 26% 17774 93224 19271 58%
c f  6.35 24 273 0 12 2185 26 26927 6230 3.1 19 6 2 7 26% 17841 92613 19377 58%
c u  6.38 24 273 0 12 2185 26 26927 5938 3.1 19 6 2 7 26% 17848 92613 19377 58%
c v  6.40 24 273 0 12 2185 26 26927 5690 3.1 19 6 2 7 26% 17848 92613 19377 58%
c
c  seconds   switched     rate        size/glue tier1    binary          remaining
c         MB   reductions   conflicts       size  tier2      irredundant
c           level   restarts     redundant    glue   trail          variables
c
c w  6.41 24 273 0 12 2185 26 26927 5686 3.1 19 6 2 7 26% 17848 92613 19377 58%
c x  6.45 24 273 0 12 2185 26 26927 5686 3.1 19 6 2 7 26% 17870 90546 19377 58%
c =  6.60 24 273 0 12 2185 26 26927 5686 3.1 19 6 2 7 26% 20250 90534 18187 55%
c d  6.61 24 273 0 12 2185 26 26927 5567 3.1 19 6 2 7 26% 17819 90534 18187 55%
c t  6.63 24 273 0 12 2185 26 26927 5567 3.1 19 6 2 7 26% 17521 90534 18187 55%
c f  6.68 24 273 0 12 2185 26 26927 5567 3.1 19 6 2 7 26% 17472 89990 18272 55%
c -  7.08 24 270 0 13 2449 26 30252 7501 3.1 19 6 2 7 26% 17559 89989 18272 55%
c -  7.31 24 266 0 14 2600 24 33857 9531 3.0 18 6 2 7 26% 17647 89988 18272 55%
c -  7.75 24 256 0 15 2910 24 37599 11228 3.1 19 6 2 7 26% 17727 89987 18272 55%
c o  7.96 24 255 0 15 3028 24 40039 13270 3.0 18 6 2 7 26% 17790 89985 18272 55%
c c  8.16 24 252 0 15 3144 24 41256 14334 3.0 19 6 2 7 26% 17866 89742 18214 55%
c d  8.16 24 252 0 15 3144 24 41256 14182 3.0 19 6 2 7 26% 17747 89742 18212 55%
c u  8.20 24 252 0 15 3144 24 41256 12179 3.0 19 6 2 7 26% 17748 89742 18212 55%
c v  8.23 24 252 0 15 3144 24 41256 11406 3.0 19 6 2 7 26% 17751 89742 18212 55%
c w  8.26 24 252 0 15 3144 24 41256 11406 3.0 19 6 2 7 26% 17751 89742 18212 55%
c x  8.30 24 252 0 15 3144 24 41256 11403 3.0 19 6 2 7 26% 17755 86543 18212 55%
c =  8.51 24 252 0 15 3144 24 41256 11403 3.0 19 6 2 7 26% 19281 86543 17449 52%
c d  8.52 24 252 0 15 3144 24 41256 11260 3.0 19 6 2 7 26% 17718 86543 17448 52%
c t  8.54 24 252 0 15 3144 24 41256 11260 3.0 19 6 2 7 26% 17410 86543 17448 52%
c f  8.57 24 252 0 15 3144 24 41256 11260 3.0 19 6 2 7 26% 17482 86091 17521 53%
c
c  seconds   switched     rate         size/glue tier1    binary          remaining
c         MB   reductions   conflicts        size  tier2      irredundant
c           level   restarts      redundant    glue   trail          variables
c
c u  8.66 24 252 0 15 3144 24 41256 10686 3.0 19 6 2 7 26% 17485 86091 17521 53%
c v  8.70 24 252 0 15 3144 24 41256 9824 3.0 19 6 2 7 26% 17488 86091 17521 53%
c w  8.73 24 252 0 15 3144 24 41256 9824 3.0 19 6 2 7 26% 17488 86091 17521 53%
c x  8.78 24 252 0 15 3144 24 41256 9821 3.0 19 6 2 7 26% 17492 79283 17521 53%
c =  8.91 24 252 0 15 3144 24 41256 9821 3.0 19 6 2 7 26% 17506 79283 17514 53%
c d  8.92 24 252 0 15 3144 24 41256 9815 3.0 19 6 2 7 26% 17491 79283 17514 53%
c t  8.93 24 252 0 15 3144 24 41256 9815 3.0 19 6 2 7 26% 17489 79283 17514 53%
c -  8.97 24 251 0 16 3155 24 41471 8784 3.0 19 6 2 6 26% 17492 79283 17514 53%
c -  9.22 24 246 0 17 3361 23 45471 10821 3.0 18 6 2 6 25% 17587 79281 17514 53%
c -  9.52 24 241 0 18 3593 23 49594 12848 2.9 18 6 2 6 25% 17684 79281 17514 53%
c s  9.76 24 237 0 18 3765 23 52141 15053 2.9 17 6 2 6 25% 17750 76127 17514 53%
c e  9.85 24 237 0 18 3765 23 52141 15053 2.9 17 6 2 6 25% 15842 79429 16414 49%
c 2  9.85 24 237 0 18 3765 23 52141 15053 2.9 17 6 2 6 25% 15823 79429 16414 49%
c s  9.86 24 237 0 18 3765 23 52141 15053 2.9 17 6 2 6 25% 15846 79034 16414 49%
c e  9.86 24 237 0 18 3765 23 52141 15053 2.9 17 6 2 6 25% 15788 79139 16388 49%
c ^  9.86 24 237 0 18 3765 23 52141 15053 2.9 17 6 2 6 25% 15788 79139 16388 49%
c - 10.00 25 234 0 19 3865 23 53838 13079 2.9 17 6 2 6 25% 15811 79139 16388 49%
c - 10.47 25 227 0 20 4219 22 58196 15103 2.9 18 6 2 6 25% 15879 79136 16388 49%
c d 10.56 25 226 0 20 4286 22 58882 15638 2.9 18 6 2 6 25% 15869 79136 16376 49%
c u 10.61 25 226 0 20 4286 22 58882 13237 2.9 18 6 2 6 25% 15920 79136 16376 49%
c
c  seconds   switched     rate         size/glue tier1    binary          remaining
c         MB   reductions   conflicts        size  tier2      irredundant
c           level   restarts      redundant    glue   trail          variables
c
c v 10.65 25 226 0 20 4286 22 58882 12462 2.9 18 6 2 6 25% 15924 79136 16376 49%
c w 10.67 25 226 0 20 4286 22 58882 12461 2.9 18 6 2 6 25% 15924 79136 16376 49%
c x 10.71 25 226 0 20 4286 22 58882 12455 2.9 18 6 2 6 25% 15948 78669 16376 49%
c = 10.87 25 226 0 20 4286 22 58882 12455 2.9 18 6 2 6 25% 16438 78669 16131 48%
c d 10.88 25 226 0 20 4286 22 58882 12113 2.9 18 6 2 6 25% 15851 78669 16130 48%
c t 10.89 25 226 0 20 4286 22 58882 12113 2.9 18 6 2 6 25% 15725 78669 16130 48%
c f 10.94 25 226 0 20 4286 22 58882 12113 2.9 18 6 2 6 25% 15744 78449 16160 49%
c c 10.97 25 226 0 20 4286 22 58882 12109 2.9 18 6 2 6 25% 15757 78444 16158 48%
c d 10.98 25 226 0 20 4286 22 58882 12109 2.9 18 6 2 6 25% 15753 78444 16158 48%
c u 11.02 25 226 0 20 4286 22 58882 11100 2.9 18 6 2 6 25% 15755 78444 16158 48%
c v 11.06 25 226 0 20 4286 22 58882 10357 2.9 18 6 2 6 25% 15755 78444 16158 48%
c w 11.08 25 226 0 20 4286 22 58882 10353 2.9 18 6 2 6 25% 15755 78444 16158 48%
c x 11.11 25 226 0 20 4286 22 58882 10352 2.9 18 6 2 6 25% 15766 78227 16158 48%
c = 11.28 25 226 0 20 4286 22 58882 10352 2.9 18 6 2 6 25% 16384 78227 15849 48%
c d 11.28 25 226 0 20 4286 22 58882 10150 2.9 18 6 2 6 25% 15729 78227 15849 48%
c t 11.30 25 226 0 20 4286 22 58882 10150 2.9 18 6 2 6 25% 15659 78227 15849 48%
c f 11.32 25 226 0 20 4286 22 58882 10150 2.9 18 6 2 6 25% 15649 78002 15880 48%
c - 11.76 25 219 0 21 4659 22 62668 12101 2.9 17 6 2 6 25% 15704 77999 15880 48%
c - 12.18 25 214 0 22 5055 22 67250 14367 2.8 17 6 2 6 25% 15786 77998 15880 48%
c o 12.52 25 210 0 22 5320 22 70102 16977 2.8 17 6 2 6 25% 15821 77998 15880 48%
c
c  seconds   switched     rate         size/glue tier1    binary          remaining
c         MB   reductions   conflicts        size  tier2      irredundant
c           level   restarts      redundant    glue   trail          variables
c
c - 12.80 25 208 0 23 5579 22 71940 16374 2.8 17 6 2 6 26% 15850 77996 15880 48%
c - 13.51 25 204 0 24 6169 23 76735 18347 2.9 18 6 2 6 26% 15904 77996 15880 48%
c d 13.93 25 201 0 24 6507 23 79938 21194 2.9 18 6 2 6 27% 15912 77996 15865 48%
c u 13.99 25 201 0 24 6507 23 79938 17779 2.9 18 6 2 6 27% 15944 77996 15865 48%
c v 14.05 25 201 0 24 6507 23 79938 16361 2.9 18 6 2 6 27% 15947 77996 15865 48%
c w 14.09 25 201 0 24 6507 23 79938 16361 2.9 18 6 2 6 27% 15947 77996 15865 48%
c x 14.14 25 201 0 24 6507 23 79938 16355 2.9 18 6 2 6 27% 15984 76850 15865 48%
c = 14.43 25 201 0 24 6507 23 79938 16355 2.9 18 6 2 6 27% 16348 76850 15683 47%
c d 14.43 25 201 0 24 6507 23 79938 16123 2.9 18 6 2 6 27% 15936 76850 15682 47%
c t 14.44 25 201 0 24 6507 23 79938 16123 2.9 18 6 2 6 27% 15804 76850 15682 47%
c f 14.46 25 201 0 24 6507 23 79938 16123 2.9 18 6 2 6 27% 15830 76709 15701 47%
c u 14.52 25 201 0 24 6507 23 79938 15158 2.9 18 6 2 6 27% 15839 76709 15701 47%
c v 14.57 25 201 0 24 6507 23 79938 14230 2.9 18 6 2 6 27% 15841 76709 15701 47%
c w 14.62 25 201 0 24 6507 23 79938 14212 2.9 18 6 2 6 27% 15841 76709 15701 47%
c x 14.69 25 201 0 24 6507 23 79938 14193 2.9 18 6 2 6 27% 16003 72986 15701 47%
c = 15.04 25 201 0 24 6507 23 79938 14193 2.9 18 6 2 6 27% 16719 72914 15337 46%
c d 15.05 25 201 0 24 6507 23 79938 14014 2.9 18 6 2 6 27% 15970 72914 15337 46%
c t 15.06 25 201 0 24 6507 23 79938 14014 2.9 18 6 2 6 27% 15860 72914 15337 46%
c f 15.08 25 201 0 24 6507 23 79938 14014 2.9 18 6 2 6 27% 15896 72715 15365 46%
c - 15.31 25 199 0 25 6665 23 81633 13736 2.8 18 6 2 6 27% 15910 72715 15365 46%
c
c  seconds   switched     rate         size/glue tier1    binary          remaining
c         MB   reductions   conflicts        size  tier2      irredundant
c           level   restarts      redundant    glue   trail          variables
c
c - 15.93 25 195 0 26 7181 23 86633 16347 2.9 18 6 2 5 27% 15952 72714 15365 46%
c - 16.41 25 191 0 27 7573 22 91733 18683 2.9 18 6 2 5 27% 16027 72709 15365 46%
c s 17.08 25 187 0 27 8010 22 95795 22447 2.9 18 6 2 5 27% 16067 71233 15365 46%
c e 17.18 25 187 0 27 8010 22 95795 22447 2.9 18 6 2 5 27% 12801 81299 13281 40%
c 2 17.18 25 187 0 27 8010 22 95795 22447 2.9 18 6 2 5 27% 12796 81299 13281 40%
c s 17.20 25 187 0 27 8010 22 95795 22447 2.9 18 6 2 5 27% 12848 79968 13281 40%
c e 17.22 25 187 0 27 8010 22 95795 22447 2.9 18 6 2 5 27% 12752 80178 13237 40%
c ^ 17.22 25 187 0 27 8010 22 95795 22447 2.9 18 6 2 5 27% 12752 80178 13237 40%
c - 17.38 24 186 0 28 8131 22 96934 15413 2.8 18 6 2 5 27% 12760 80178 13237 40%
c - 17.98 24 181 0 29 8535 22 102226 18135 2.8 18 6 2 5 28% 12806 80177 13237 40%
c c 18.40 24 179 0 29 8893 22 104551 20297 2.8 18 6 2 5 28% 12841 80148 13231 40%
c d 18.41 24 179 0 29 8893 22 104551 20274 2.8 18 6 2 5 28% 12829 80148 13231 40%
c u 18.48 24 179 0 29 8893 22 104551 17214 2.8 18 6 2 5 28% 12860 80148 13231 40%
c v 18.54 24 179 0 29 8893 22 104551 15510 2.8 18 6 2 5 28% 12861 80148 13231 40%
c w 18.61 24 179 0 29 8893 22 104551 15503 2.8 18 6 2 5 28% 12861 80148 13231 40%
c x 18.69 24 179 0 29 8893 22 104551 15498 2.8 18 6 2 5 28% 12972 79486 13231 40%
c = 19.06 24 179 0 29 8893 22 104551 15498 2.8 18 6 2 5 28% 12990 79486 13222 40%
c d 19.07 24 179 0 29 8893 22 104551 15490 2.8 18 6 2 5 28% 12969 79486 13222 40%
c t 19.08 24 179 0 29 8893 22 104551 15490 2.8 18 6 2 5 28% 12867 79486 13222 40%
c f 19.18 24 179 0 29 8893 22 104551 15490 2.8 18 6 2 5 28% 12881 79404 13229 40%
c
c  seconds   switched     rate          size/glue tier1    binary          remaining
c         MB   reductions   conflicts         size  tier2      irredundant
c           level   restarts       redundant    glue   trail          variables
c
c u 19.24 24 179 0 29 8893 22 104551 14627 2.8 18 6 2 5 28% 12888 79404 13229 40%
c v 19.28 24 179 0 29 8893 22 104551 14239 2.8 18 6 2 5 28% 12889 79404 13229 40%
c w 19.37 24 179 0 29 8893 22 104551 14099 2.8 18 6 2 5 28% 12889 79404 13229 40%
c x 19.44 24 179 0 29 8893 22 104551 14091 2.8 18 6 2 5 28% 12905 78796 13229 40%
c = 19.82 24 179 0 29 8893 22 104551 14091 2.8 18 6 2 5 28% 12955 78796 13204 40%
c d 19.82 24 179 0 29 8893 22 104551 14059 2.8 18 6 2 5 28% 12903 78796 13204 40%
c t 19.84 24 179 0 29 8893 22 104551 14059 2.8 18 6 2 5 28% 12884 78796 13204 40%
c - 20.13 24 177 0 30 9108 22 107611 15055 2.8 18 6 2 5 28% 12901 78795 13204 40%
c o 20.42 24 176 0 30 9354 22 110102 17260 2.8 18 6 2 5 28% 12919 78795 13204 40%
c - 20.83 24 175 0 31 9754 22 113089 17769 2.8 18 7 2 5 28% 12944 78795 13204 40%
c - 21.52 24 172 0 32 10263 22 118656 20228 2.8 18 7 2 5 28% 12980 78793 13204 40%
c - 22.35 24 169 0 33 10859 22 124312 22306 2.8 19 7 2 5 29% 13005 78793 13204 40%
c - 23.27 25 166 0 34 11458 22 130056 24203 2.8 19 7 2 5 29% 13034 78792 13204 40%
c u 23.79 25 166 0 34 11736 22 132784 23380 2.8 19 7 2 5 29% 13067 78792 13204 40%
c v 23.87 25 166 0 34 11736 22 132784 21251 2.8 19 7 2 5 29% 13067 78792 13204 40%
c w 23.92 25 166 0 34 11736 22 132784 21250 2.8 19 7 2 5 29% 13067 78792 13204 40%
c x 24.00 25 166 0 34 11736 22 132784 21240 2.8 19 7 2 5 29% 13079 78205 13204 40%
c = 24.47 25 166 0 34 11736 22 132784 21240 2.8 19 7 2 5 29% 13081 78205 13203 40%
c d 24.48 25 166 0 34 11736 22 132784 21240 2.8 19 7 2 5 29% 13078 78205 13203 40%
c t 24.49 25 166 0 34 11736 22 132784 21240 2.8 19 7 2 5 29% 13050 78205 13203 40%
c
c  seconds   switched      rate          size/glue tier1    binary          remaining
c         MB   reductions    conflicts         size  tier2      irredundant
c           level   restarts        redundant    glue   trail          variables
c
c u 24.58 25 166 0 34 11736 22 132784 19841 2.8 19 7 2 5 29% 13057 78205 13203 40%
c v 24.64 25 166 0 34 11736 22 132784 19025 2.8 19 7 2 5 29% 13057 78205 13203 40%
c w 24.71 25 166 0 34 11736 22 132784 18893 2.8 19 7 2 5 29% 13057 78205 13203 40%
c x 24.80 25 166 0 34 11736 22 132784 18874 2.8 19 7 2 5 29% 13159 77071 13203 40%
c t 25.29 25 166 0 34 11736 22 132784 18874 2.8 19 7 2 5 29% 13137 77071 13203 40%
c - 25.68 25 165 0 35 12028 22 135888 19245 2.8 19 7 2 5 29% 13150 77071 13203 40%
c - 26.56 25 162 0 36 12579 22 141806 22048 2.8 20 7 2 5 30% 13175 77070 13203 40%
c - 27.44 25 160 0 37 13123 22 147806 22636 2.8 20 7 1 5 30% 13203 77070 13203 40%
c i 28.35 25 158 0 37 13617 21 153587 27932 2.8 21 7 1 5 30% 13250 77069 13202 40%
c - 28.38 25 158 0 38 13635 21 153888 23430 2.8 21 7 1 5 30% 13251 77069 13202 40%
c 2 28.87 25 156 0 38 13955 21 157831 27101 2.8 21 7 1 5 30% 13277 77068 13201 40%
c s 28.87 25 156 0 38 13955 21 157831 27101 2.8 21 7 1 5 30% 13281 77002 13201 40%
c e 28.99 25 156 0 38 13955 21 157831 27101 2.8 21 7 1 5 30% 9308 93178 11209 34%
c 2 28.99 25 156 0 38 13955 21 157831 27101 2.8 21 7 1 5 30% 9302 93178 11209 34%
c s 29.03 25 156 0 38 13955 21 157831 27101 2.8 21 7 1 5 30% 9325 91238 11209 34%
c e 29.05 25 156 0 38 13955 21 157831 27101 2.8 21 7 1 5 30% 9249 91500 11174 34%
c ^ 29.05 25 156 0 38 13955 21 157831 27101 2.8 21 7 1 5 30% 9249 91500 11174 34%
c - 29.23 25 154 0 39 14014 21 160052 17790 2.8 20 7 1 5 30% 9260 91500 11174 34%
c o 29.25 25 154 0 39 14015 21 160131 17866 2.8 20 7 1 5 30% 9261 91500 11174 34%
c u 29.78 25 152 0 39 14339 20 164746 20309 2.8 20 7 1 5 30% 9293 91499 11174 34%
c
c  seconds   switched      rate          size/glue tier1    binary         remaining
c         MB   reductions    conflicts         size  tier2     irredundant
c           level   restarts        redundant    glue   trail         variables
c
c v 29.86 25 152 0 39 14339 20 164746 17123 2.8 20 7 1 5 30% 9295 91499 11174 34%
c w 29.93 25 152 0 39 14339 20 164746 17062 2.8 20 7 1 5 30% 9295 91499 11174 34%
c x 30.00 25 152 0 39 14339 20 164746 17061 2.8 20 7 1 5 30% 9302 91373 11174 34%
c t 30.01 25 152 0 39 14339 20 164746 17061 2.8 20 7 1 5 30% 9245 91373 11174 34%
c f 30.12 25 152 0 39 14339 20 164746 17061 2.8 20 7 1 5 30% 9212 90855 11199 34%
c u 30.17 25 152 0 39 14339 20 164746 16697 2.8 20 7 1 5 30% 9214 90855 11199 34%
c v 30.22 25 152 0 39 14339 20 164746 16011 2.8 20 7 1 5 30% 9215 90855 11199 34%
c w 30.36 25 152 0 39 14339 20 164746 15579 2.8 20 7 1 5 30% 9215 90855 11199 34%
c t 30.85 25 152 0 39 14339 20 164746 15579 2.8 20 7 1 5 30% 9214 90855 11199 34%
c - 31.02 25 151 0 40 14417 20 166297 14138 2.8 20 7 1 5 30% 9220 90855 11199 34%
c i 31.55 25 149 0 40 14713 20 171617 19029 2.7 20 7 1 5 31% 9238 90854 11179 34%
c - 31.64 25 149 0 41 14753 20 172622 16564 2.7 20 7 1 5 31% 9210 90854 11179 34%
c i 31.72 25 149 0 41 14825 20 173399 17267 2.7 20 7 1 5 31% 9218 90854 11178 34%
c i 32.16 25 147 0 41 15137 19 177639 21133 2.7 19 7 1 5 31% 9239 90853 11177 34%
c i 32.21 25 147 0 41 15174 19 178255 21678 2.7 19 7 1 5 31% 9246 90853 11176 34%
c - 32.30 25 146 0 42 15239 19 179026 18498 2.7 19 7 1 5 31% 9236 90853 11176 34%
c i 32.38 25 146 0 42 15292 19 179766 19151 2.7 19 7 1 5 31% 9241 90853 11175 34%
c i 32.45 25 146 0 42 15363 19 180448 19764 2.7 19 7 1 5 31% 9246 90853 11173 34%
c i 32.54 25 145 0 42 15420 19 181738 20942 2.6 19 7 1 5 31% 9253 90853 11172 34%
c i 32.57 25 145 0 42 15447 19 182065 21232 2.6 19 7 1 5 31% 9256 90853 11171 34%
c
c  seconds   switched      rate          size/glue tier1    binary         remaining
c         MB   reductions    conflicts         size  tier2     irredundant
c           level   restarts        redundant    glue   trail         variables
c
c i 32.62 25 145 0 42 15487 19 182742 21854 2.6 19 7 1 5 31% 9261 90853 11170 34%
c i 32.64 25 145 0 42 15505 19 183139 22210 2.6 19 7 1 5 31% 9263 90853 11169 34%
c i 32.66 25 145 0 42 15529 19 183340 22383 2.6 19 7 1 5 31% 9265 90853 11167 34%
c i 32.66 25 145 0 42 15529 19 183364 22393 2.6 19 7 1 5 31% 9268 90853 11166 34%
c i 32.66 25 145 0 42 15542 19 183453 22470 2.6 19 7 1 5 31% 9269 90853 11164 34%
c - 32.75 25 143 0 43 15639 19 185506 19431 2.6 19 7 1 5 30% 9247 90853 11164 34%
c i 32.93 25 140 0 43 15804 18 189209 22821 2.6 19 7 1 5 30% 9259 90853 11163 34%
c - 33.08 26 138 0 44 16027 18 192063 22297 2.6 19 7 2 5 29% 9260 90853 11163 34%
c i 33.14 26 137 0 44 16068 18 192980 23147 2.6 19 7 2 5 29% 9261 90853 11162 34%
c i 33.14 26 137 0 44 16070 18 193022 23175 2.6 19 7 2 5 29% 9264 90853 11161 33%
c i 33.14 26 137 0 44 16077 18 193173 23306 2.6 19 7 2 5 29% 9265 90853 11160 33%
c i 33.18 26 135 0 44 16105 18 194689 24635 2.6 19 7 2 5 29% 9273 90853 11159 33%
c i 33.18 26 135 0 44 16110 18 194903 24802 2.6 19 7 2 5 29% 9282 90853 11158 33%
c i 33.24 26 133 0 44 16160 17 196961 26632 2.6 19 7 2 5 28% 9292 90852 11157 33%
c i 33.25 26 131 0 44 16171 17 197955 27459 2.6 18 7 2 5 28% 9310 90852 11156 33%
c i 33.26 26 131 0 44 16174 17 198136 27592 2.6 18 7 2 5 28% 9317 90851 11155 33%
c i 33.26 26 131 0 44 16174 17 198144 27592 2.6 18 7 2 5 28% 9319 90851 11154 33%
c i 33.26 26 131 0 44 16174 17 198159 27599 2.6 18 7 2 5 28% 9323 90851 11153 33%
c i 33.26 26 131 0 44 16174 17 198163 27599 2.6 18 7 2 5 28% 9325 90851 11146 33%
c } 33.26 26 131 0 44 16174 17 198167 27598 2.6 18 7 2 5 28% 9326 90851 11138 33%
c
c  seconds   switched      rate          size/glue tier1    binary         remaining
c         MB   reductions    conflicts         size  tier2     irredundant
c           level   restarts        redundant    glue   trail         variables
c
c 0 33.26 26 131 0 44 16174 17 198167 27598 2.6 18 7 2 5 28% 9326 90851 11138 33%
c
c ---- [ result ] ------------------------------------------------------------
c
s UNSATISFIABLE
c
c ---- [ profiling ] ---------------------------------------------------------
c
c          22.58   67.88 %  search
c          22.58   67.88 %  focused
c          10.24   30.80 %  simplify
c           9.74   29.29 %  probe
c           4.42   13.30 %  sweep
c           3.40   10.21 %  vivify
c           0.82    2.46 %  factor
c           0.73    2.20 %  eliminate
c           0.46    1.39 %  substitute
c           0.43    1.29 %  congruence
c           0.39    1.17 %  preprocess
c           0.20    0.60 %  reduce
c           0.15    0.46 %  fastel
c           0.15    0.44 %  transitive
c           0.14    0.42 %  subsume
c           0.07    0.20 %  backbone
c           0.02    0.07 %  lucky
c           0.02    0.07 %  parse
c =============================================
c          33.26  100.00 %  total
c
c ---- [ statistics ] --------------------------------------------------------
c
c chronological:                         5816                3 %  conflicts
c conflicts:                           198167             5958.10 per second
c congruent:                             2723                8 %  variables
c decisions:                          3724299               18.79 per conflict
c eliminated:                           17171               52 %  variables
c factored:                              3935               12 %  variables
c fast_eliminated:                       8843               51 %  eliminated
c fast_strengthened:                      227                5 %  per strengthened
c fast_subsumed:                          284                2 %  per subsumed
c iterations:                              27                0 %  variables
c propagations:                     174231804          5238467    per second
c reductions:                              44             4504    interval
c reordered:                                6            33028    interval
c restarts:                             16174               12    interval
c strengthened:                          4444                0 %  checks
c substituted:                           8869               27 %  variables
c subsumed:                             18024                0 %  checks
c switched:                                 0                0    interval
c vivified:                             90162               16 %  checks
c
c ---- [ glue usage ] --------------------------------------------------------
c
c focused glue 2 used 114472 clauses 22.79% accumulated 72.50% tier1
c focused glue 3 used  53026 clauses 10.56% accumulated 83.06%
c focused glue 4 used  23910 clauses  4.76% accumulated 87.82%
c focused glue 5 used  14979 clauses  2.98% accumulated 90.80% tier2
c
c ---- [ resources ] ---------------------------------------------------------
c
c maximum-resident-set-size:         27025408 bytes         26 MB
c process-time:                            33s              33.26 seconds
c
c ---- [ shutting down ] -----------------------------------------------------
c
c exit 20
